p cnf 422 648
4 8 97 101 102 0
4 8 97 101 -102 0
4 8 97 -101 102 0
4 8 97 -101 -102 0
4 8 -97 103 104 0
4 8 -97 103 -104 0
4 8 -97 -103 104 0
4 8 -97 -103 -104 0
1 -4 33 105 106 0
1 -4 33 105 -106 0
1 -4 33 -105 106 0
1 -4 33 -105 -106 0
1 -33 56 107 108 0
1 -33 56 107 -108 0
1 -33 56 -107 108 0
1 -33 56 -107 -108 0
-33 54 -56 109 110 0
-33 54 -56 109 -110 0
-33 54 -56 -109 110 0
-33 54 -56 -109 -110 0
-56 83 99 111 112 0
-56 83 99 111 -112 0
-56 83 99 -111 112 0
-56 83 99 -111 -112 0
-56 83 -99 113 114 0
-56 83 -99 113 -114 0
-56 83 -99 -113 114 0
-56 83 -99 -113 -114 0
-56 70 -83 115 116 0
-56 70 -83 115 -116 0
-56 70 -83 -115 116 0
-56 70 -83 -115 -116 0
-33 -70 -83 117 118 0
-33 -70 -83 117 -118 0
-33 -70 -83 -117 118 0
-33 -70 -83 -117 -118 0
-1 20 36 119 120 0
-1 20 36 119 -120 0
-1 20 36 -119 120 0
-1 20 36 -119 -120 0
26 36 97 121 122 0
26 36 97 121 -122 0
26 36 97 -121 122 0
26 36 97 -121 -122 0
28 49 -97 123 124 0
28 49 -97 123 -124 0
28 49 -97 -123 124 0
28 49 -97 -123 -124 0
-28 49 51 125 126 0
-28 49 51 125 -126 0
-28 49 51 -125 126 0
-28 49 51 -125 -126 0
-28 -51 59 127 128 0
-28 -51 59 127 -128 0
-28 -51 59 -127 128 0
-28 -51 59 -127 -128 0
36 -49 59 129 130 0
36 -49 59 129 -130 0
36 -49 59 -129 130 0
36 -49 59 -129 -130 0
-1 40 -59 131 132 0
-1 40 -59 131 -132 0
-1 40 -59 -131 132 0
-1 40 -59 -131 -132 0
26 -40 -59 133 134 0
26 -40 -59 133 -134 0
26 -40 -59 -133 134 0
26 -40 -59 -133 -134 0
-26 50 57 135 136 0
-26 50 57 135 -136 0
-26 50 57 -135 136 0
-26 50 57 -135 -136 0
-20 -57 73 137 138 0
-20 -57 73 137 -138 0
-20 -57 73 -137 138 0
-20 -57 73 -137 -138 0
50 -57 -73 139 140 0
50 -57 -73 139 -140 0
50 -57 -73 -139 140 0
50 -57 -73 -139 -140 0
-26 36 -50 141 142 0
-26 36 -50 141 -142 0
-26 36 -50 -141 142 0
-26 36 -50 -141 -142 0
-1 -4 -36 143 144 0
-1 -4 -36 143 -144 0
-1 -4 -36 -143 144 0
-1 -4 -36 -143 -144 0
54 80 82 145 146 0
54 80 82 145 -146 0
54 80 82 -145 146 0
54 80 82 -145 -146 0
14 -54 80 147 148 0
14 -54 80 147 -148 0
14 -54 80 -147 148 0
14 -54 80 -147 -148 0
-14 -54 82 149 150 0
-14 -54 82 149 -150 0
-14 -54 82 -149 150 0
-14 -54 82 -149 -150 0
-8 -80 82 151 152 0
-8 -80 82 151 -152 0
-8 -80 82 -151 152 0
-8 -80 82 -151 -152 0
13 52 90 153 154 0
13 52 90 153 -154 0
13 52 90 -153 154 0
13 52 90 -153 -154 0
-13 52 90 155 156 0
-13 52 90 155 -156 0
-13 52 90 -155 156 0
-13 52 90 -155 -156 0
34 -52 -82 157 158 0
34 -52 -82 157 -158 0
34 -52 -82 -157 158 0
34 -52 -82 -157 -158 0
-34 -52 -82 159 160 0
-34 -52 -82 159 -160 0
-34 -52 -82 -159 160 0
-34 -52 -82 -159 -160 0
26 60 -90 161 162 0
26 60 -90 161 -162 0
26 60 -90 -161 162 0
26 60 -90 -161 -162 0
22 -26 60 163 164 0
22 -26 60 163 -164 0
22 -26 60 -163 164 0
22 -26 60 -163 -164 0
-22 60 95 165 166 0
-22 60 95 165 -166 0
-22 60 95 -165 166 0
-22 60 95 -165 -166 0
-60 95 99 167 168 0
-60 95 99 167 -168 0
-60 95 99 -167 168 0
-60 95 99 -167 -168 0
-60 95 -99 169 170 0
-60 95 -99 169 -170 0
-60 95 -99 -169 170 0
-60 95 -99 -169 -170 0
55 -90 -95 171 172 0
55 -90 -95 171 -172 0
55 -90 -95 -171 172 0
55 -90 -95 -171 -172 0
20 58 93 173 174 0
20 58 93 173 -174 0
20 58 93 -173 174 0
20 58 93 -173 -174 0
-20 32 58 175 176 0
-20 32 58 175 -176 0
-20 32 58 -175 176 0
-20 32 58 -175 -176 0
-32 58 93 177 178 0
-32 58 93 177 -178 0
-32 58 93 -177 178 0
-32 58 93 -177 -178 0
-58 76 93 179 180 0
-58 76 93 179 -180 0
-58 76 93 -179 180 0
-58 76 93 -179 -180 0
-55 -58 -76 181 182 0
-55 -58 -76 181 -182 0
-55 -58 -76 -181 182 0
-55 -58 -76 -181 -182 0
18 47 94 183 184 0
18 47 94 183 -184 0
18 47 94 -183 184 0
18 47 94 -183 -184 0
-47 -93 94 185 186 0
-47 -93 94 185 -186 0
-47 -93 94 -185 186 0
-47 -93 94 -185 -186 0
18 -93 -94 187 188 0
18 -93 -94 187 -188 0
18 -93 -94 -187 188 0
18 -93 -94 -187 -188 0
33 41 92 189 190 0
33 41 92 189 -190 0
33 41 92 -189 190 0
33 41 92 -189 -190 0
17 -33 92 191 192 0
17 -33 92 191 -192 0
17 -33 92 -191 192 0
17 -33 92 -191 -192 0
-17 -18 92 193 194 0
-17 -18 92 193 -194 0
-17 -18 92 -193 194 0
-17 -18 92 -193 -194 0
-18 41 -92 195 196 0
-18 41 -92 195 -196 0
-18 41 -92 -195 196 0
-18 41 -92 -195 -196 0
-41 67 69 197 198 0
-41 67 69 197 -198 0
-41 67 69 -197 198 0
-41 67 69 -197 -198 0
57 67 -69 199 200 0
57 67 -69 199 -200 0
57 67 -69 -199 200 0
57 67 -69 -199 -200 0
-41 67 -69 201 202 0
-41 67 -69 201 -202 0
-41 67 -69 -201 202 0
-41 67 -69 -201 -202 0
48 55 -67 203 204 0
48 55 -67 203 -204 0
48 55 -67 -203 204 0
48 55 -67 -203 -204 0
48 -55 -67 205 206 0
48 -55 -67 205 -206 0
48 -55 -67 -205 206 0
48 -55 -67 -205 -206 0
-8 21 -48 207 208 0
-8 21 -48 207 -208 0
-8 21 -48 -207 208 0
-8 21 -48 -207 -208 0
13 -21 -48 209 210 0
13 -21 -48 209 -210 0
13 -21 -48 -209 210 0
13 -21 -48 -209 -210 0
-13 -21 -48 211 212 0
-13 -21 -48 211 -212 0
-13 -21 -48 -211 212 0
-13 -21 -48 -211 -212 0
45 -72 -86 213 214 0
45 -72 -86 213 -214 0
45 -72 -86 -213 214 0
45 -72 -86 -213 -214 0
38 -67 72 215 216 0
38 -67 72 215 -216 0
38 -67 72 -215 216 0
38 -67 72 -215 -216 0
-36 -50 -74 217 218 0
-36 -50 -74 217 -218 0
-36 -50 -74 -217 218 0
-36 -50 -74 -217 -218 0
26 45 -51 219 220 0
26 45 -51 219 -220 0
26 45 -51 -219 220 0
26 45 -51 -219 -220 0
5 -42 -88 221 222 0
5 -42 -88 221 -222 0
5 -42 -88 -221 222 0
5 -42 -88 -221 -222 0
22 -47 100 223 224 0
22 -47 100 223 -224 0
22 -47 100 -223 224 0
22 -47 100 -223 -224 0
35 72 98 225 226 0
35 72 98 225 -226 0
35 72 98 -225 226 0
35 72 98 -225 -226 0
-46 89 -95 227 228 0
-46 89 -95 227 -228 0
-46 89 -95 -227 228 0
-46 89 -95 -227 -228 0
-46 53 -89 229 230 0
-46 53 -89 229 -230 0
-46 53 -89 -229 230 0
-46 53 -89 -229 -230 0
13 40 -46 231 232 0
13 40 -46 231 -232 0
13 40 -46 -231 232 0
13 40 -46 -231 -232 0
-40 -46 62 233 234 0
-40 -46 62 233 -234 0
-40 -46 62 -233 234 0
-40 -46 62 -233 -234 0
-46 -53 -89 235 236 0
-46 -53 -89 235 -236 0
-46 -53 -89 -235 236 0
-46 -53 -89 -235 -236 0
-53 -81 82 237 238 0
-53 -81 82 237 -238 0
-53 -81 82 -237 238 0
-53 -81 82 -237 -238 0
30 56 65 239 240 0
30 56 65 239 -240 0
30 56 65 -239 240 0
30 56 65 -239 -240 0
11 -37 66 241 242 0
11 -37 66 241 -242 0
11 -37 66 -241 242 0
11 -37 66 -241 -242 0
10 12 58 243 244 0
10 12 58 243 -244 0
10 12 58 -243 244 0
10 12 58 -243 -244 0
-10 12 20 245 246 0
-10 12 20 245 -246 0
-10 12 20 -245 246 0
-10 12 20 -245 -246 0
31 -72 -85 247 248 0
31 -72 -85 247 -248 0
31 -72 -85 -247 248 0
31 -72 -85 -247 -248 0
50 -66 87 249 250 0
50 -66 87 249 -250 0
50 -66 87 -249 250 0
50 -66 87 -249 -250 0
-2 -30 47 251 252 0
-2 -30 47 251 -252 0
-2 -30 47 -251 252 0
-2 -30 47 -251 -252 0
24 27 88 253 254 0
24 27 88 253 -254 0
24 27 88 -253 254 0
24 27 88 -253 -254 0
31 34 37 255 256 0
31 34 37 255 -256 0
31 34 37 -255 256 0
31 34 37 -255 -256 0
-39 71 -98 257 258 0
-39 71 -98 257 -258 0
-39 71 -98 -257 258 0
-39 71 -98 -257 -258 0
46 -64 -84 259 260 0
46 -64 -84 259 -260 0
46 -64 -84 -259 260 0
46 -64 -84 -259 -260 0
25 27 85 261 262 0
25 27 85 261 -262 0
25 27 85 -261 262 0
25 27 85 -261 -262 0
-25 27 85 263 264 0
-25 27 85 263 -264 0
-25 27 85 -263 264 0
-25 27 85 -263 -264 0
-14 28 -35 265 266 0
-14 28 -35 265 -266 0
-14 28 -35 -265 266 0
-14 28 -35 -265 -266 0
14 30 -70 267 268 0
14 30 -70 267 -268 0
14 30 -70 -267 268 0
14 30 -70 -267 -268 0
-15 -19 -63 269 270 0
-15 -19 -63 269 -270 0
-15 -19 -63 -269 270 0
-15 -19 -63 -269 -270 0
-16 65 -86 271 272 0
-16 65 -86 271 -272 0
-16 65 -86 -271 272 0
-16 65 -86 -271 -272 0
-16 65 -73 273 274 0
-16 65 -73 273 -274 0
-16 65 -73 -273 274 0
-16 65 -73 -273 -274 0
-24 61 -79 275 276 0
-24 61 -79 275 -276 0
-24 61 -79 -275 276 0
-24 61 -79 -275 -276 0
-24 -64 -79 277 278 0
-24 -64 -79 277 -278 0
-24 -64 -79 -277 278 0
-24 -64 -79 -277 -278 0
-9 19 98 279 280 0
-9 19 98 279 -280 0
-9 19 98 -279 280 0
-9 19 98 -279 -280 0
-19 62 -94 281 282 0
-19 62 -94 281 -282 0
-19 62 -94 -281 282 0
-19 62 -94 -281 -282 0
-9 -19 -62 283 284 0
-9 -19 -62 283 -284 0
-9 -19 -62 -283 284 0
-9 -19 -62 -283 -284 0
71 77 84 285 286 0
71 77 84 285 -286 0
71 77 84 -285 286 0
71 77 84 -285 -286 0
51 77 -84 287 288 0
51 77 -84 287 -288 0
51 77 -84 -287 288 0
51 77 -84 -287 -288 0
3 -77 79 289 290 0
3 -77 79 289 -290 0
3 -77 79 -289 290 0
3 -77 79 -289 -290 0
-62 -77 79 291 292 0
-62 -77 79 291 -292 0
-62 -77 79 -291 292 0
-62 -77 79 -291 -292 0
-3 -63 -77 293 294 0
-3 -63 -77 293 -294 0
-3 -63 -77 -293 294 0
-3 -63 -77 -293 -294 0
15 -61 -85 295 296 0
15 -61 -85 295 -296 0
15 -61 -85 -295 296 0
15 -61 -85 -295 -296 0
3 76 -88 297 298 0
3 76 -88 297 -298 0
3 76 -88 -297 298 0
3 76 -88 -297 -298 0
-2 -3 25 299 300 0
-2 -3 25 299 -300 0
-2 -3 25 -299 300 0
-2 -3 25 -299 -300 0
17 -29 69 301 302 0
17 -29 69 301 -302 0
17 -29 69 -301 302 0
17 -29 69 -301 -302 0
7 -92 97 303 304 0
7 -92 97 303 -304 0
7 -92 97 -303 304 0
7 -92 97 -303 -304 0
16 66 -88 305 306 0
16 66 -88 305 -306 0
16 66 -88 -305 306 0
16 66 -88 -305 -306 0
-7 -34 -87 307 308 0
-7 -34 -87 307 -308 0
-7 -34 -87 -307 308 0
-7 -34 -87 -307 -308 0
10 -85 -87 309 310 0
10 -85 -87 309 -310 0
10 -85 -87 -309 310 0
10 -85 -87 -309 -310 0
42 87 100 311 312 0
42 87 100 311 -312 0
42 87 100 -311 312 0
42 87 100 -311 -312 0
3 -10 -78 313 314 0
3 -10 -78 313 -314 0
3 -10 -78 -313 314 0
3 -10 -78 -313 -314 0
6 29 31 315 316 0
6 29 31 315 -316 0
6 29 31 -315 316 0
6 29 31 -315 -316 0
5 76 91 317 318 0
5 76 91 317 -318 0
5 76 91 -317 318 0
5 76 91 -317 -318 0
14 -35 -80 319 320 0
14 -35 -80 319 -320 0
14 -35 -80 -319 320 0
14 -35 -80 -319 -320 0
9 -11 64 321 322 0
9 -11 64 321 -322 0
9 -11 64 -321 322 0
9 -11 64 -321 -322 0
35 38 89 323 324 0
35 38 89 323 -324 0
35 38 89 -323 324 0
35 38 89 -323 -324 0
-11 -68 -98 325 326 0
-11 -68 -98 325 -326 0
-11 -68 -98 -325 326 0
-11 -68 -98 -325 -326 0
7 9 -80 327 328 0
7 9 -80 327 -328 0
7 9 -80 -327 328 0
7 9 -80 -327 -328 0
57 86 96 329 330 0
57 86 96 329 -330 0
57 86 96 -329 330 0
57 86 96 -329 -330 0
-49 -71 96 331 332 0
-49 -71 96 331 -332 0
-49 -71 96 -331 332 0
-49 -71 96 -331 -332 0
-15 29 -96 333 334 0
-15 29 -96 333 -334 0
-15 29 -96 -333 334 0
-15 29 -96 -333 -334 0
21 73 -76 335 336 0
21 73 -76 335 -336 0
21 73 -76 -335 336 0
21 73 -76 -335 -336 0
-12 -78 -81 337 338 0
-12 -78 -81 337 -338 0
-12 -78 -81 -337 338 0
-12 -78 -81 -337 -338 0
39 -45 -75 339 340 0
39 -45 -75 339 -340 0
39 -45 -75 -339 340 0
39 -45 -75 -339 -340 0
6 43 -100 341 342 0
6 43 -100 341 -342 0
6 43 -100 -341 342 0
6 43 -100 -341 -342 0
-38 44 99 343 344 0
-38 44 99 343 -344 0
-38 44 99 -343 344 0
-38 44 99 -343 -344 0
-38 44 -75 345 346 0
-38 44 -75 345 -346 0
-38 44 -75 -345 346 0
-38 44 -75 -345 -346 0
-42 -51 -74 347 348 0
-42 -51 -74 347 -348 0
-42 -51 -74 -347 348 0
-42 -51 -74 -347 -348 0
16 19 39 349 350 0
16 19 39 349 -350 0
16 19 39 -349 350 0
16 19 39 -349 -350 0
15 -22 -81 351 352 0
15 -22 -81 351 -352 0
15 -22 -81 -351 352 0
15 -22 -81 -351 -352 0
-15 -37 78 353 354 0
-15 -37 78 353 -354 0
-15 -37 78 -353 354 0
-15 -37 78 -353 -354 0
-6 -32 -75 355 356 0
-6 -32 -75 355 -356 0
-6 -32 -75 -355 356 0
-6 -32 -75 -355 -356 0
44 -60 91 357 358 0
44 -60 91 357 -358 0
44 -60 91 -357 358 0
44 -60 91 -357 -358 0
53 67 88 359 360 0
53 67 88 359 -360 0
53 67 88 -359 360 0
53 67 88 -359 -360 0
-39 42 86 361 362 0
-39 42 86 361 -362 0
-39 42 86 -361 362 0
-39 42 86 -361 -362 0
-7 74 -91 363 364 0
-7 74 -91 363 -364 0
-7 74 -91 -363 364 0
-7 74 -91 -363 -364 0
2 -59 68 365 366 0
2 -59 68 365 -366 0
2 -59 68 -365 366 0
2 -59 68 -365 -366 0
-44 78 -100 367 368 0
-44 78 -100 367 -368 0
-44 78 -100 -367 368 0
-44 78 -100 -367 -368 0
-7 -42 -66 369 370 0
-7 -42 -66 369 -370 0
-7 -42 -66 -369 370 0
-7 -42 -66 -369 -370 0
-49 75 -91 371 372 0
-49 75 -91 371 -372 0
-49 75 -91 -371 372 0
-49 75 -91 -371 -372 0
11 -23 -68 373 374 0
11 -23 -68 373 -374 0
11 -23 -68 -373 374 0
11 -23 -68 -373 -374 0
-23 -27 -74 375 376 0
-23 -27 -74 375 -376 0
-23 -27 -74 -375 376 0
-23 -27 -74 -375 -376 0
-59 68 81 377 378 0
-59 68 81 377 -378 0
-59 68 81 -377 378 0
-59 68 81 -377 -378 0
33 -42 -66 379 380 0
33 -42 -66 379 -380 0
33 -42 -66 -379 380 0
33 -42 -66 -379 -380 0
23 -27 63 381 382 0
23 -27 63 381 -382 0
23 -27 63 -381 382 0
23 -27 63 -381 -382 0
-61 70 75 383 384 0
-61 70 75 383 -384 0
-61 70 75 -383 384 0
-61 70 75 -383 -384 0
-5 -17 42 385 386 0
-5 -17 42 385 -386 0
-5 -17 42 -385 386 0
-5 -17 42 -385 -386 0
-6 -25 -49 387 388 0
-6 -25 -49 387 -388 0
-6 -25 -49 -387 388 0
-6 -25 -49 -387 -388 0
23 -38 74 389 390 0
23 -38 74 389 -390 0
23 -38 74 -389 390 0
23 -38 74 -389 -390 0
32 -74 -96 391 392 0
32 -74 -96 391 -392 0
32 -74 -96 -391 392 0
32 -74 -96 -391 -392 0
-45 63 84 393 394 0
-45 63 84 393 -394 0
-45 63 84 -393 394 0
-45 63 84 -393 -394 0
-5 -23 64 395 396 0
-5 -23 64 395 -396 0
-5 -23 64 -395 396 0
-5 -23 64 -395 -396 0
46 -71 97 397 398 0
46 -71 97 397 -398 0
46 -71 97 -397 398 0
46 -71 97 -397 -398 0
-45 61 -71 399 400 0
-45 61 -71 399 -400 0
-45 61 -71 -399 400 0
-45 61 -71 -399 -400 0
-5 -7 43 401 402 0
-5 -7 43 401 -402 0
-5 -7 43 -401 402 0
-5 -7 43 -401 -402 0
-5 24 74 403 404 0
-5 24 74 403 -404 0
-5 24 74 -403 404 0
-5 24 74 -403 -404 0
2 23 74 405 406 0
2 23 74 405 -406 0
2 23 74 -405 406 0
2 23 74 -405 -406 0
84 85 407 408 409 0
84 85 407 408 -409 0
84 85 407 -408 409 0
84 85 407 -408 -409 0
84 85 -407 408 409 0
84 85 -407 408 -409 0
84 85 -407 -408 409 0
84 85 -407 -408 -409 0
-29 75 81 410 411 0
-29 75 81 410 -411 0
-29 75 81 -410 411 0
-29 75 81 -410 -411 0
-31 -43 -44 412 413 0
-31 -43 -44 412 -413 0
-31 -43 -44 -412 413 0
-31 -43 -44 -412 -413 0
37 -65 414 415 416 0
37 -65 414 415 -416 0
37 -65 414 -415 416 0
37 -65 414 -415 -416 0
37 -65 -414 415 416 0
37 -65 -414 415 -416 0
37 -65 -414 -415 416 0
37 -65 -414 -415 -416 0
-12 -25 -31 417 418 0
-12 -25 -31 417 -418 0
-12 -25 -31 -417 418 0
-12 -25 -31 -417 -418 0
2 -43 74 419 420 0
2 -43 74 419 -420 0
2 -43 74 -419 420 0
2 -43 74 -419 -420 0
-30 37 -61 421 422 0
-30 37 -61 421 -422 0
-30 37 -61 -421 422 0
-30 37 -61 -421 -422 0
